10	5
0	4	3	1	4	2
1	2	10	5
2	1	8
3	1	7
4	1	10
5	1	6
6	1	9
7	1	11
8	1	11
9	1	11
10	1	11
11	0
0	0	0	0	0	0	0
1	2	3	4	5	5	2
2	1	3	3	1	5	1
3	6	2	4	4	4	3
4	8	4	1	5	4	2
5	9	1	5	3	2	5
6	4	3	4	5	2	2
7	10	1	3	4	5	3
8	5	5	1	5	1	2
9	10	3	5	4	5	4
10	7	1	5	1	4	3
11	0	0	0	0	0	0
9	9	11	12	9
